n = 10; 

m=8; 

																							
85	9	39	41	56	40	54	77	51	31
86	72	8	49	47	87	58	18	68	28
31	13	7	5	20	69	45	44	29	32
71	27	55	10	11	18	42	64	73	9 
13	11	73	43	27	33	57	42	71	3
61	25	52	64	19	75	60	28	14	95
21	8	5	8	58	59	85	35	84	9 
31	13	7	5	20	69	45	44	29	32








 
 


 

 
